c WARNING: for repeatability, setting FPU to use double precision
d VARIABLES            61802        
d CONSTRAINTS          262890       
c ============================[ Problem Statistics ]=============================
c |                                                                             |
c |  Number of variables:         61802                                         |
c |  Number of clauses:          262890                                         |
c |  Parse time:                   0.04 s                                       |
c |                                                                             |
c ============================[ Search Statistics ]==============================
c | Conflicts |          ORIGINAL         |          LEARNT          | Progress |
c |           |    Vars  Clauses Literals |    Limit  Clauses Lit/Cl |          |
c ===============================================================================
c |       100 |   49206   227010   552772 |    83237      100     35 | 20.381 % |
c |       250 |   49206   227010   552772 |    91560      250     45 | 20.381 % |
c |       475 |   49206   227010   552772 |   100716      475     98 | 20.381 % |
c |       812 |   49206   227010   552772 |   110788      812     96 | 20.381 % |
c |      1318 |   49205   227000   552749 |   121867     1310    126 | 20.383 % |
c |      2077 |   49205   227000   552749 |   134054     2069    107 | 20.383 % |
c |      3216 |   49205   227000   552749 |   147459     3208    143 | 20.383 % |
c |      4924 |   49205   227000   552749 |   162205     4916    133 | 20.383 % |
c |      7486 |   49205   227000   552749 |   178425     7478    131 | 20.383 % |
c |     11330 |   49205   227000   552749 |   196268    11322    120 | 20.383 % |
c |     17096 |   49205   227000   552749 |   215895    17088    127 | 20.383 % |
c |     25745 |   49205   227000   552749 |   237484    25737    141 | 20.383 % |
c |     38719 |   49204   226990   552726 |   261233    38705    128 | 20.384 % |
c |     58180 |   49203   226980   552703 |   287356    58134    143 | 20.386 % |
c |     87372 |   49202   226970   552680 |   316092    87233    148 | 20.388 % |
c |    131161 |   49194   226950   552634 |   347701   130922    145 | 20.401 % |
c ===============================================================================
c restarts              : 509
c conflicts             : 186262         (2875 /sec)
c decisions             : 716678         (0.00 % random) (11061 /sec)
c propagations          : 237186440      (3660734 /sec)
c conflict literals     : 27187008       (20.60 % deleted)
d RESTARTS             509
d FAILURES             186262       
d NODES                716678       
d BACKTRACKS           716678       
d PROPAGATIONS         237186440    
d NOGOODSIZE           145.96 
d MEMORY               159.00 
d TIME                 64.792 

s SATISFIABLE
